p edge 48 527
colours 10
e 1 10
e 2 11
e 3 12
e 4 13
e 5 14
e 6 15
e 7 16
e 8 17
e 9 18
e 19 2
e 19 3
e 19 4
e 19 5
e 19 6
e 19 7
e 19 8
e 19 9
e 19 11
e 19 12
e 19 13
e 19 14
e 19 15
e 19 16
e 19 17
e 19 18
e 19 20
e 19 21
e 19 22
e 19 23
e 19 24
e 19 25
e 19 26
e 19 27
e 20 1
e 20 3
e 20 4
e 20 5
e 20 6
e 20 7
e 20 8
e 20 9
e 20 10
e 20 12
e 20 13
e 20 14
e 20 15
e 20 16
e 20 17
e 20 18
e 20 21
e 20 22
e 20 23
e 20 24
e 20 25
e 20 26
e 20 27
e 21 1
e 21 2
e 21 4
e 21 5
e 21 6
e 21 7
e 21 8
e 21 9
e 21 10
e 21 11
e 21 13
e 21 14
e 21 15
e 21 16
e 21 17
e 21 18
e 21 22
e 21 23
e 21 24
e 21 25
e 21 26
e 21 27
e 22 1
e 22 2
e 22 3
e 22 5
e 22 6
e 22 7
e 22 8
e 22 9
e 22 10
e 22 11
e 22 12
e 22 14
e 22 15
e 22 16
e 22 17
e 22 18
e 22 23
e 22 24
e 22 25
e 22 26
e 22 27
e 23 1
e 23 2
e 23 3
e 23 4
e 23 6
e 23 7
e 23 8
e 23 9
e 23 10
e 23 11
e 23 12
e 23 13
e 23 15
e 23 16
e 23 17
e 23 18
e 23 24
e 23 25
e 23 26
e 23 27
e 24 1
e 24 2
e 24 3
e 24 4
e 24 5
e 24 7
e 24 8
e 24 9
e 24 10
e 24 11
e 24 12
e 24 13
e 24 14
e 24 16
e 24 17
e 24 18
e 24 25
e 24 26
e 24 27
e 25 1
e 25 2
e 25 3
e 25 4
e 25 5
e 25 6
e 25 8
e 25 9
e 25 10
e 25 11
e 25 12
e 25 13
e 25 14
e 25 15
e 25 17
e 25 18
e 25 26
e 25 27
e 26 1
e 26 2
e 26 3
e 26 4
e 26 5
e 26 6
e 26 7
e 26 9
e 26 10
e 26 11
e 26 12
e 26 13
e 26 14
e 26 15
e 26 16
e 26 18
e 26 27
e 27 1
e 27 2
e 27 3
e 27 4
e 27 5
e 27 6
e 27 7
e 27 8
e 27 10
e 27 11
e 27 12
e 27 13
e 27 14
e 27 15
e 27 16
e 27 17
e 28 1
e 28 5
e 28 6
e 28 7
e 28 8
e 28 9
e 28 10
e 28 11
e 28 12
e 28 13
e 28 14
e 28 15
e 28 16
e 28 17
e 28 18
e 29 1
e 29 2
e 29 3
e 29 4
e 29 8
e 29 9
e 29 10
e 29 11
e 29 12
e 29 13
e 29 14
e 29 15
e 29 16
e 29 17
e 29 18
e 30 1
e 30 2
e 30 3
e 30 4
e 30 5
e 30 6
e 30 7
e 30 10
e 30 11
e 30 12
e 30 13
e 30 14
e 30 15
e 30 16
e 30 17
e 30 18
e 31 1
e 31 2
e 31 3
e 31 4
e 31 5
e 31 6
e 31 7
e 31 8
e 31 9
e 31 10
e 31 13
e 31 14
e 31 15
e 31 16
e 31 17
e 31 18
e 32 1
e 32 2
e 32 3
e 32 4
e 32 5
e 32 6
e 32 7
e 32 8
e 32 9
e 32 10
e 32 12
e 32 14
e 32 15
e 32 16
e 32 17
e 32 18
e 33 1
e 33 2
e 33 3
e 33 4
e 33 5
e 33 6
e 33 7
e 33 8
e 33 9
e 33 10
e 33 11
e 33 14
e 33 15
e 33 16
e 33 17
e 33 18
e 34 1
e 34 2
e 34 3
e 34 4
e 34 5
e 34 6
e 34 7
e 34 8
e 34 9
e 34 10
e 34 11
e 34 12
e 34 13
e 34 16
e 34 17
e 34 18
e 35 1
e 35 2
e 35 3
e 35 4
e 35 5
e 35 6
e 35 7
e 35 8
e 35 9
e 35 10
e 35 11
e 35 12
e 35 13
e 35 15
e 35 17
e 35 18
e 36 1
e 36 2
e 36 3
e 36 4
e 36 5
e 36 6
e 36 7
e 36 8
e 36 9
e 36 10
e 36 11
e 36 12
e 36 13
e 36 14
e 36 17
e 36 18
e 37 1
e 37 2
e 37 3
e 37 4
e 37 5
e 37 6
e 37 7
e 37 8
e 37 9
e 37 10
e 37 11
e 37 12
e 37 13
e 37 14
e 37 15
e 37 16
e 38 1
e 38 2
e 38 3
e 38 4
e 38 5
e 38 6
e 38 7
e 38 8
e 38 9
e 38 10
e 38 11
e 38 12
e 38 13
e 38 14
e 38 15
e 38 16
e 38 18
e 39 1
e 39 2
e 39 3
e 39 4
e 39 5
e 39 6
e 39 7
e 39 8
e 39 9
e 39 10
e 39 11
e 39 12
e 39 13
e 39 14
e 39 15
e 39 16
e 39 17
e 40 1
e 40 2
e 40 3
e 40 4
e 40 5
e 40 6
e 40 7
e 40 8
e 40 9
e 40 10
e 40 12
e 40 13
e 40 15
e 40 16
e 40 17
e 40 18
e 41 1
e 41 2
e 41 3
e 41 4
e 41 5
e 41 6
e 41 7
e 41 8
e 41 9
e 41 10
e 41 11
e 41 13
e 41 14
e 41 16
e 41 17
e 41 18
e 42 1
e 42 2
e 42 3
e 42 4
e 42 5
e 42 6
e 42 7
e 42 8
e 42 9
e 42 10
e 42 11
e 42 12
e 42 14
e 42 15
e 42 17
e 42 18
e 43 1
e 43 2
e 43 3
e 43 4
e 43 5
e 43 6
e 43 7
e 43 8
e 43 9
e 43 10
e 43 12
e 43 13
e 43 14
e 43 15
e 43 16
e 43 18
e 44 1
e 44 2
e 44 3
e 44 4
e 44 5
e 44 6
e 44 7
e 44 8
e 44 9
e 44 10
e 44 11
e 44 13
e 44 14
e 44 15
e 44 16
e 44 17
e 45 1
e 45 2
e 45 3
e 45 4
e 45 5
e 45 6
e 45 7
e 45 8
e 45 9
e 45 10
e 45 11
e 45 12
e 45 14
e 45 15
e 45 16
e 45 17
e 45 18
e 46 1
e 46 2
e 46 3
e 46 4
e 46 5
e 46 6
e 46 7
e 46 8
e 46 9
e 46 10
e 46 11
e 46 12
e 46 13
e 46 15
e 46 16
e 46 18
e 47 1
e 47 2
e 47 3
e 47 4
e 47 5
e 47 6
e 47 7
e 47 8
e 47 9
e 47 10
e 47 11
e 47 12
e 47 13
e 47 14
e 47 16
e 47 17
e 48 1
e 48 2
e 48 3
e 48 4
e 48 5
e 48 6
e 48 7
e 48 8
e 48 9
e 48 10
e 48 11
e 48 12
e 48 13
e 48 14
e 48 15
e 48 17
e 48 18
